128 78
107 115 24 34 52 76 102 31 91 89 62 120 61 8 13 72 124 7 125 126 2 110 92 47 74 93 46 60 41 116 11 127 75 15 9 73 10 64 44 65 18 113 81 83 95 119 53 21 17 66 29 109 57 40 114 27 45 99 42 25 63 79 36 80 67 94 71 68 85 38 88 43 86 48 84 111 96 5 87 82 55 105 59 54 35 122 51 50 58 118 16 1 14 49 32 103 26 33 23 12 100 77 123 128 78 90 97 19 98 30 28 117 20 69 106 101 56 70 39 104 3 4 37 121 6 112 22 108 
